N = 198;
M = 470;
Edge_Start = [1, 1, 2, 2, 3, 3, 3, 4, 4, 5, 5, 5, 6, 6, 7, 7, 7, 8, 9, 9, 10, 11, 11, 12, 12, 13, 13, 13, 14, 14, 15, 15, 16, 17, 17, 17, 18, 18, 19, 19, 20, 20, 21, 21, 22, 22, 23, 23, 24, 24, 25, 25, 26, 26, 27, 27, 28, 28, 28, 29, 29, 29, 30, 30, 30, 31, 31, 31, 32, 32, 32, 33, 33, 34, 34, 34, 35, 35, 36, 36, 37, 37, 37, 38, 38, 38, 39, 39, 40, 40, 41, 41, 41, 42, 42, 43, 44, 44, 44, 45, 45, 46, 47, 47, 48, 49, 49, 50, 50, 50, 51, 51, 51, 52, 52, 52, 53, 53, 54, 54, 54, 55, 55, 55, 56, 56, 56, 57, 57, 57, 58, 58, 58, 59, 59, 60, 60, 61, 61, 61, 62, 62, 62, 63, 63, 64, 64, 64, 65, 65, 65, 66, 66, 67, 67, 68, 68, 68, 69, 69, 69, 70, 70, 71, 71, 72, 72, 72, 73, 73, 74, 74, 74, 75, 75, 75, 76, 76, 76, 77, 77, 77, 78, 78, 78, 79, 79, 80, 80, 81, 81, 81, 82, 82, 82, 83, 84, 85, 85, 85, 86, 86, 86, 87, 88, 89, 89, 90, 90, 90, 91, 91, 91, 92, 92, 93, 94, 94, 94, 95, 95, 95, 96, 96, 97, 97, 98, 98, 98, 99, 99, 100, 100, 101, 101, 101, 102, 102, 102, 103, 103, 103, 104, 104, 105, 105, 106, 106, 107, 107, 107, 108, 108, 109, 109, 110, 110, 110, 111, 111, 111, 112, 112, 112, 113, 113, 113, 114, 114, 114, 115, 115, 115, 116, 116, 117, 117, 118, 118, 118, 119, 119, 120, 120, 121, 121, 121, 122, 122, 123, 123, 124, 124, 124, 125, 125, 126, 126, 127, 127, 127, 128, 128, 128, 129, 129, 129, 130, 131, 131, 132, 132, 132, 133, 133, 133, 134, 134, 134, 135, 135, 135, 136, 136, 136, 137, 137, 137, 138, 138, 138, 139, 139, 140, 140, 141, 141, 141, 142, 142, 143, 143, 144, 144, 144, 145, 145, 145, 146, 146, 147, 147, 148, 148, 149, 149, 150, 150, 151, 151, 151, 152, 152, 152, 153, 153, 153, 154, 154, 154, 155, 155, 155, 156, 156, 156, 157, 157, 157, 158, 158, 159, 160, 160, 161, 161, 161, 162, 162, 162, 163, 163, 163, 164, 164, 165, 165, 166, 166, 167, 167, 167, 168, 168, 168, 169, 169, 169, 170, 171, 171, 172, 172, 172, 173, 173, 173, 174, 174, 175, 175, 176, 176, 177, 177, 178, 178, 178, 179, 179, 180, 181, 182, 182, 182, 183, 184, 185, 185, 186, 186, 186, 187, 187, 188, 188, 188, 189, 189, 190, 190, 191, 191, 192, 192, 192, 193, 193, 194, 194, 194, 195, 195, 196, 196, 196, 197, 197, 198, 198];
Edge_End = [2, 20, 1, 3, 2, 4, 22, 3, 5, 4, 6, 24, 5, 7, 6, 8, 26, 7, 10, 28, 9, 12, 30, 11, 13, 12, 14, 32, 13, 15, 14, 34, 17, 16, 18, 36, 17, 19, 18, 38, 1, 21, 20, 41, 3, 23, 22, 24, 5, 23, 26, 45, 7, 25, 28, 47, 9, 27, 29, 28, 30, 49, 11, 29, 31, 30, 32, 51, 13, 31, 33, 32, 34, 15, 33, 35, 34, 55, 17, 37, 36, 38, 57, 19, 37, 39, 38, 59, 41, 60, 21, 40, 42, 41, 62, 44, 43, 45, 64, 25, 44, 47, 27, 46, 68, 29, 50, 49, 51, 70, 31, 50, 52, 51, 53, 72, 52, 54, 53, 55, 74, 35, 54, 56, 55, 57, 76, 37, 56, 58, 57, 59, 78, 39, 58, 40, 61, 60, 62, 81, 42, 61, 63, 62, 64, 44, 63, 65, 64, 66, 85, 65, 67, 66, 68, 48, 67, 69, 68, 70, 89, 50, 69, 72, 91, 52, 71, 73, 72, 74, 54, 73, 75, 74, 76, 95, 56, 75, 77, 76, 78, 97, 58, 77, 79, 78, 99, 81, 100, 61, 80, 82, 81, 83, 102, 82, 85, 65, 84, 86, 85, 87, 106, 86, 108, 69, 90, 89, 91, 110, 71, 90, 92, 91, 112, 94, 93, 95, 114, 75, 94, 96, 95, 116, 77, 98, 97, 99, 118, 79, 98, 80, 101, 100, 102, 121, 82, 101, 103, 102, 104, 123, 103, 105, 104, 125, 86, 107, 106, 108, 127, 88, 107, 110, 129, 90, 109, 111, 110, 112, 131, 92, 111, 113, 112, 114, 133, 94, 113, 115, 114, 116, 135, 96, 115, 118, 137, 98, 117, 119, 118, 139, 121, 140, 101, 120, 122, 121, 142, 103, 124, 123, 125, 144, 105, 124, 127, 146, 107, 126, 128, 127, 129, 148, 109, 128, 130, 129, 111, 132, 131, 133, 152, 113, 132, 134, 133, 135, 154, 115, 134, 136, 135, 137, 156, 117, 136, 138, 137, 139, 158, 119, 138, 120, 141, 140, 142, 161, 122, 141, 144, 163, 124, 143, 145, 144, 146, 165, 126, 145, 148, 167, 128, 147, 150, 169, 149, 151, 150, 152, 171, 132, 151, 153, 152, 154, 173, 134, 153, 155, 154, 156, 175, 136, 155, 157, 156, 158, 177, 138, 157, 179, 161, 180, 141, 160, 162, 161, 163, 182, 143, 162, 164, 163, 165, 145, 164, 167, 186, 147, 166, 168, 167, 169, 188, 149, 168, 170, 169, 151, 172, 171, 173, 192, 153, 172, 174, 173, 194, 155, 176, 175, 196, 157, 178, 177, 179, 198, 159, 178, 160, 182, 162, 181, 183, 182, 185, 184, 186, 166, 185, 187, 186, 188, 168, 187, 189, 188, 190, 189, 191, 190, 192, 172, 191, 193, 192, 194, 174, 193, 195, 194, 196, 176, 195, 197, 196, 198, 178, 197];
L = [4, 17, 4, 8, 8, 12, 7, 12, 7, 7, 8, 16, 8, 17, 17, 13, 3, 13, 2, 12, 2, 14, 11, 14, 4, 4, 5, 11, 5, 10, 10, 8, 5, 5, 5, 3, 5, 12, 12, 6, 17, 16, 16, 7, 7, 6, 6, 3, 16, 3, 4, 16, 3, 4, 2, 4, 12, 2, 18, 18, 5, 4, 11, 5, 5, 5, 4, 1, 11, 4, 10, 10, 4, 8, 4, 15, 15, 4, 3, 1, 1, 14, 9, 6, 14, 14, 14, 18, 16, 12, 7, 16, 13, 13, 2, 13, 13, 9, 5, 16, 9, 15, 4, 15, 10, 4, 13, 13, 11, 10, 1, 11, 15, 15, 14, 3, 14, 9, 9, 8, 3, 4, 8, 5, 5, 4, 15, 9, 4, 16, 16, 17, 3, 18, 17, 12, 14, 14, 13, 10, 2, 13, 8, 8, 18, 5, 18, 14, 14, 6, 10, 6, 10, 10, 2, 10, 2, 13, 13, 11, 6, 10, 11, 18, 2, 3, 18, 17, 17, 6, 3, 6, 3, 3, 6, 9, 15, 6, 6, 6, 14, 2, 3, 14, 3, 3, 9, 18, 15, 10, 18, 13, 13, 17, 2, 17, 13, 10, 13, 9, 9, 7, 2, 7, 17, 6, 18, 18, 16, 4, 2, 16, 10, 10, 16, 14, 14, 15, 6, 9, 15, 3, 3, 10, 2, 2, 2, 17, 14, 9, 17, 15, 7, 7, 11, 19, 2, 11, 11, 11, 7, 17, 7, 2, 2, 16, 2, 6, 6, 13, 17, 17, 13, 1, 11, 4, 1, 7, 7, 12, 3, 16, 12, 14, 14, 16, 13, 6, 16, 10, 10, 18, 17, 10, 18, 16, 3, 14, 16, 9, 9, 3, 8, 1, 19, 8, 1, 1, 2, 17, 7, 7, 13, 13, 16, 13, 2, 3, 17, 2, 14, 14, 16, 13, 11, 16, 13, 13, 3, 5, 5, 7, 13, 13, 7, 13, 13, 7, 13, 17, 7, 4, 4, 19, 8, 3, 19, 16, 16, 4, 8, 3, 4, 1, 9, 9, 8, 5, 2, 8, 7, 18, 13, 7, 11, 11, 14, 13, 3, 14, 18, 8, 13, 18, 15, 13, 15, 1, 1, 6, 3, 13, 6, 5, 5, 5, 7, 13, 5, 10, 10, 19, 1, 8, 19, 17, 17, 6, 13, 8, 6, 11, 13, 7, 5, 13, 6, 6, 3, 2, 18, 3, 9, 9, 6, 13, 6, 15, 8, 8, 15, 16, 16, 7, 7, 13, 7, 14, 14, 3, 15, 15, 7, 16, 7, 7, 6, 6, 14, 1, 12, 12, 5, 13, 16, 16, 5, 4, 11, 5, 7, 17, 2, 17, 15, 15, 16, 16, 13, 8, 13, 6, 6, 3, 7, 3, 8, 8, 9, 9, 15, 15, 14, 16, 14, 15, 15, 6, 14, 6, 13, 13, 12, 5, 12, 15, 15, 10, 4, 10];
T = [6, 27, 6, 5, 5, 16, 12, 16, 5, 5, 7, 13, 7, 11, 11, 19, 8, 19, 1, 16, 1, 13, 4, 13, 12, 12, 5, 8, 5, 8, 8, 9, 2, 2, 6, 5, 6, 8, 8, 7, 27, 13, 13, 16, 12, 1, 1, 1, 13, 1, 8, 13, 8, 8, 4, 14, 16, 4, 9, 9, 2, 1, 4, 2, 1, 1, 1, 11, 8, 1, 1, 1, 6, 9, 6, 11, 11, 1, 5, 1, 1, 9, 16, 7, 9, 22, 22, 30, 11, 9, 16, 11, 5, 5, 8, 14, 14, 6, 8, 13, 6, 14, 14, 14, 15, 1, 14, 14, 16, 16, 11, 16, 9, 9, 11, 11, 11, 14, 14, 16, 12, 1, 16, 11, 11, 1, 24, 16, 1, 9, 9, 18, 1, 30, 18, 9, 16, 16, 20, 8, 8, 20, 5, 5, 18, 8, 18, 15, 15, 3, 7, 3, 1, 1, 10, 15, 10, 16, 16, 4, 1, 16, 4, 24, 1, 11, 24, 21, 21, 5, 12, 5, 1, 1, 1, 8, 24, 1, 1, 1, 18, 7, 1, 18, 3, 3, 10, 21, 12, 8, 21, 9, 9, 16, 1, 16, 16, 7, 16, 1, 1, 1, 4, 1, 12, 1, 20, 20, 14, 1, 1, 14, 16, 16, 20, 11, 11, 4, 5, 8, 4, 1, 1, 9, 7, 4, 4, 13, 8, 10, 13, 12, 9, 9, 13, 26, 1, 13, 21, 21, 3, 16, 3, 1, 1, 9, 4, 8, 8, 11, 16, 12, 11, 1, 6, 1, 1, 8, 8, 13, 1, 20, 13, 17, 17, 21, 16, 5, 21, 6, 6, 13, 9, 9, 13, 16, 1, 8, 16, 14, 14, 1, 17, 1, 26, 17, 1, 1, 6, 16, 10, 10, 14, 17, 9, 14, 1, 7, 16, 1, 13, 13, 18, 15, 6, 18, 14, 14, 1, 11, 11, 13, 11, 16, 13, 15, 15, 4, 17, 9, 4, 1, 1, 22, 1, 1, 22, 20, 20, 14, 6, 1, 14, 1, 14, 14, 2, 7, 6, 2, 12, 13, 17, 12, 6, 6, 5, 11, 7, 5, 15, 1, 15, 15, 6, 8, 6, 2, 2, 9, 7, 11, 9, 3, 3, 12, 1, 17, 12, 12, 12, 14, 1, 1, 14, 20, 20, 4, 13, 6, 4, 18, 13, 7, 7, 13, 6, 6, 8, 7, 13, 8, 14, 14, 5, 11, 5, 7, 6, 1, 7, 14, 14, 1, 10, 8, 1, 17, 17, 7, 16, 16, 6, 11, 1, 6, 1, 1, 10, 1, 18, 18, 1, 13, 3, 3, 7, 1, 18, 7, 7, 16, 7, 16, 22, 22, 18, 18, 10, 6, 10, 6, 6, 8, 10, 8, 1, 1, 12, 12, 26, 26, 12, 11, 12, 19, 19, 1, 10, 1, 17, 17, 4, 1, 4, 22, 22, 18, 1, 18];
Lower_Bound = [1, 6, 11, 27, 32, 39, 51, 69, 197, 198, 178, 191, 184, 189, 193, 231, 229, 235, 240, 27, 40, 24, 26, 27, 66, 58, 186, 181, 172, 174, 175, 176, 177, 183, 194, 224, 224, 232, 255, 67, 56, 62, 100, 85, 79, 213, 199, 136, 171, 157, 173, 182, 193, 207, 195, 206, 207, 218, 234, 76, 89, 69, 74, 93, 107, 110, 112, 124, 137, 141, 173, 193, 214, 220, 223, 221, 223, 217, 220, 118, 97, 106, 123, 132, 115, 117, 116, 151, 139, 158, 172, 189, 234, 223, 227, 229, 229, 234, 231, 130, 120, 107, 128, 131, 132, 122, 127, 139, 161, 159, 167, 180, 197, 218, 220, 233, 235, 242, 255, 163, 147, 147, 144, 155, 144, 146, 143, 157, 166, 180, 169, 182, 192, 207, 211, 212, 234, 243, 259, 164, 157, 153, 175, 162, 156, 151, 186, 171, 207, 201, 199, 190, 195, 205, 217, 213, 233, 238, 274, 175, 162, 168, 176, 172, 167, 195, 187, 202, 202, 219, 206, 201, 196, 195, 218, 227, 248, 249, 256, 183, 191, 176, 199, 228, 211, 201, 208, 212, 212, 224, 227, 211, 208, 205, 224, 226, 248, 250];
Upper_Bound = [4, 8, 13, 32, 41, 41, 59, 72, 201, 201, 182, 199, 185, 190, 201, 232, 236, 236, 241, 32, 43, 27, 31, 38, 68, 61, 187, 182, 175, 175, 178, 179, 182, 185, 197, 225, 225, 233, 267, 76, 61, 63, 106, 86, 91, 219, 207, 137, 172, 162, 174, 194, 213, 208, 197, 207, 214, 219, 237, 80, 93, 74, 75, 104, 110, 115, 114, 130, 142, 147, 174, 200, 216, 237, 225, 224, 229, 224, 221, 120, 106, 109, 131, 135, 119, 118, 118, 155, 140, 159, 175, 197, 240, 225, 228, 230, 244, 236, 239, 131, 122, 108, 131, 137, 135, 133, 131, 144, 168, 160, 177, 191, 203, 224, 221, 235, 236, 243, 256, 177, 151, 150, 146, 157, 150, 154, 148, 168, 175, 185, 173, 196, 201, 209, 219, 216, 244, 245, 267, 178, 161, 158, 182, 169, 158, 154, 189, 173, 210, 203, 200, 194, 203, 208, 220, 220, 235, 245, 283, 176, 165, 181, 177, 179, 171, 204, 194, 210, 206, 221, 213, 206, 213, 206, 234, 236, 255, 251, 268, 189, 192, 181, 220, 232, 213, 208, 211, 214, 218, 226, 230, 216, 209, 207, 227, 231, 260, 255];
Start = 1;
End = 198;
Time = 255;
